LAMMPS data file Created by LigParGen - (Written by Leela S. Dodda)

       9 atoms
       8 bonds
      12 angles
      10 dihedrals
       4 impropers
 
       9 atom types
       8 bond types
      12 angle types
      10 dihedral types
       4 improper types
 
   -2.516870    47.483130 xlo xhi
   -0.092030    49.907970 ylo yhi
   -1.208560    48.791440 zlo zhi

Masses

       1     12.011  
       2     12.011  
       3     12.011  
       4     18.998  
       5     18.998  
       6     18.998  
       7     18.998  
       8      1.008  
       9      1.008  

Pair Coeffs 

       1      0.076  3.5500000 
       2      0.076  3.5500000 
       3      0.066  3.5000000 
       4      0.060  2.9000000 
       5      0.060  2.9000000 
       6      0.060  2.9000000 
       7      0.060  2.9000000 
       8      0.030  2.5000000 
       9      0.030  2.5000000 

Bond Coeffs 

       1   549.0000     1.3400 
       2   317.0000     1.5100 
       3   367.0000     1.3600 
       4   367.0000     1.3600 
       5   367.0000     1.3600 
       6   420.0000     1.3400 
       7   340.0000     1.0800 
       8   340.0000     1.0800 

Angle Coeffs 

       1     70.000    124.000
       2     50.000    109.500
       3     50.000    109.500
       4     50.000    109.500
       5     80.000    121.500
       6     35.000    120.000
       7     35.000    120.000
       8     77.000    109.100
       9     60.430    118.760
      10     35.000    117.000
      11     77.000    109.100
      12     77.000    109.100

Dihedral Coeffs  

       1      0.500      0.000      0.000      0.000 
       2      0.000     14.000      0.000      0.000 
       3     -2.500      0.000      0.250      0.000 
       4      0.000     14.000      0.000      0.000 
       5     -2.500      0.000      0.250      0.000 
       6     -2.500      0.000      0.250      0.000 
       7      0.500      0.000      0.000      0.000 
       8      0.500      0.000      0.000      0.000 
       9      0.000     14.000      0.000      0.000 
      10      0.000     14.000      0.000      0.000 

Improper Coeffs 

       1      0.000      -1       2 
       2      0.000      -1       2 
       3      2.500      -1       2 
       4      2.500      -1       2 

Atoms 

     1      1      1 -0.21100000    1.000  1.00000  0.00000
     2      1      2 -0.09070000   -0.341  1.00000  0.00000
     3      1      3 0.48170000   -1.191  1.00000  1.23602
     4      1      4 -0.15130000   -2.517  1.00159  0.94918
     5      1      5 -0.15130000   -0.957 -0.09203  2.01013
     6      1      6 -0.15130000   -0.955  2.09040  2.01167
     7      1      7 -0.06280000   -0.954  1.00153 -1.20856
     8      1      8 0.16840000    1.566  1.00000  0.92615
     9      1      9 0.16840000    1.547  0.99882 -0.93676

Bonds 

     1      1      2      1
     2      2      3      2
     3      3      4      3
     4      4      5      3
     5      5      6      3
     6      6      7      2
     7      7      8      1
     8      8      9      1

Angles 

     1      1      1      2      3
     2      2      2      3      4
     3      3      2      3      5
     4      4      2      3      6
     5      5      1      2      7
     6      6      2      1      8
     7      7      2      1      9
     8      8      4      3      6
     9      9      3      2      7
    10     10      8      1      9
    11     11      4      3      5
    12     12      5      3      6

Dihedrals

     1      1      4      3      2      1 
     2      2      8      1      2      3 
     3      3      7      2      3      5 
     4      4      8      1      2      7 
     5      5      7      2      3      6 
     6      6      7      2      3      4 
     7      7      5      3      2      1 
     8      8      6      3      2      1 
     9      9      9      1      2      3 
    10     10      9      1      2      7 

Impropers

     1      1      3      2      4      5 
     2      2      3      2      4      6 
     3      3      2      1      3      7 
     4      4      1      9      8      2 

