LAMMPS data file Created by LigParGen - (Written by Leela S. Dodda)

       8 atoms
       7 bonds
      12 angles
       9 dihedrals
       4 impropers
 
       8 atom types
       7 bond types
      12 angle types
       9 dihedral types
       4 improper types
 
   -1.036700    48.963300 xlo xhi
   -0.064340    49.935660 ylo yhi
   -0.917380    49.082620 zlo zhi

Masses

       1     12.011  
       2     12.011  
       3     18.998  
       4     18.998  
       5     18.998  
       6     18.998  
       7      1.008  
       8      1.008  

Pair Coeffs 

       1      0.066  3.5000000 
       2      0.066  3.5000000 
       3      0.060  2.9000000 
       4      0.060  2.9000000 
       5      0.060  2.9000000 
       6      0.060  2.9000000 
       7      0.030  2.5000000 
       8      0.030  2.5000000 

Bond Coeffs 

       1   268.0000     1.5290 
       2   367.0000     1.3600 
       3   367.0000     1.3600 
       4   367.0000     1.3600 
       5   367.0000     1.3600 
       6   340.0000     1.0900 
       7   340.0000     1.0900 

Angle Coeffs 

       1     50.000    109.500
       2     50.000    109.500
       3     50.000    109.500
       4     50.000    109.500
       5     37.500    110.700
       6     37.500    110.700
       7     33.000    107.800
       8     40.000    107.000
       9     77.000    109.100
      10     77.000    109.100
      11     77.000    109.100
      12     40.000    107.000

Dihedral Coeffs  

       1     -2.500      0.000      0.250      0.000 
       2      0.000      0.000      0.360      0.000 
       3     -2.500      0.000      0.250      0.000 
       4      0.000      0.000      0.360      0.000 
       5      0.000      0.000      0.360      0.000 
       6      0.000      0.000      0.360      0.000 
       7      0.000      0.000      0.360      0.000 
       8     -2.500      0.000      0.250      0.000 
       9      0.000      0.000      0.360      0.000 

Improper Coeffs 

       1      0.000      -1       2 
       2      0.000      -1       2 
       3      0.000      -1       2 
       4      0.000      -1       2 

Atoms 

     1      1      1 -0.06650000    1.000  1.00000  0.00000
     2      1      2 0.40980000   -0.512  1.00000  0.00000
     3      1      3 -0.15750000   -1.037  1.00000  1.24109
     4      1      4 -0.15750000   -0.982  2.11853 -0.62246
     5      1      5 -0.15750000   -1.014 -0.06434 -0.67095
     6      1      6 -0.14020000    1.483  0.25578  1.03593
     7      1      7 0.13470000    1.402  2.00832  0.08251
     8      1      8 0.13470000    1.379  0.54492 -0.91738

Bonds 

     1      1      2      1
     2      2      3      2
     3      3      4      2
     4      4      5      2
     5      5      6      1
     6      6      7      1
     7      7      8      1

Angles 

     1      1      1      2      3
     2      2      1      2      4
     3      3      1      2      5
     4      4      2      1      6
     5      5      2      1      7
     6      6      2      1      8
     7      7      7      1      8
     8      8      6      1      7
     9      9      3      2      4
    10     10      3      2      5
    11     11      4      2      5
    12     12      6      1      8

Dihedrals

     1      1      6      1      2      3 
     2      2      7      1      2      5 
     3      3      6      1      2      5 
     4      4      8      1      2      4 
     5      5      8      1      2      3 
     6      6      8      1      2      5 
     7      7      7      1      2      3 
     8      8      6      1      2      4 
     9      9      7      1      2      4 

Impropers

     1      1      2      1      3      4 
     2      2      2      1      3      5 
     3      3      1      2      6      7 
     4      4      1      2      6      8 

